    ndtset      1
# Silicon structure
## Structure Definition ##
acell 1.0 1.0 1.0
rprim
10.260834172785838 0.0 0.0
0.0 10.260834172785838 0.0
0. 0.0 10.260834172785838
ntypat 1
natom 8
typat 1 1 1 1 1 1 1 1
xred
   0.750000000000000  0.750000000000000  0.750000000000000
   0.250000000000000  0.750000000000000  0.250000000000000
   0.750000000000000  0.250000000000000  0.250000000000000
   0.250000000000000  0.250000000000000  0.750000000000000
   0.000000000000000  0.000000000000000  0.000000000000000
   0.000000000000000  0.500000000000000  0.500000000000000
   0.500000000000000  0.500000000000000  0.000000000000000
   0.500000000000000  0.000000000000000  0.500000000000000
     znucl     14.00
 symmorphi     0
   chkprim     0

# Plane wave basis
      ecut   32.00    

# kpoint grid
     ngkpt  2 2 2    
   nshiftk      1     
    shiftk      0.00   0.00   0.00  #no shift

# Self-consistent run to get the density
      iscf1    7
     nstep1   100                  
    toldfe    1.00d-9 #Tolerance for convergence
     nband1    24
    prtden1    1
    diemac1    12.0     #Preconditioner for scf
    kptopt1    3
    istwfk1  1000*1
     prtwf1    1 # output  WFK for qmc

