
NumberOfAtoms 8
SpinPolarized yes
NumberOfSpecies 1
WriteDenchar .true.

%block ChemicalSpeciesLabel
 1  14  Si
%endblock ChemicalSpeciesLabel

%block PAO.Basis
Si   2    splitgauss 
 n=3   0   3   
     9.0 9.0 9.0 
     1.0 1.0 1.5
 n=3   1   3  P
     9.0 9.0 9.0
     1.0 1.0 1.5
%endblock PAO.Basis

MeshCutoff          200.0 Ry

MaxSCFIterations    100  
DM.MixingWeight      0.3 
DM.NumberPulay       3  
DM.Tolerance         1.d-3
%block WaveFuncKPoints
0.0 0.0 0.0 from 1 to 32 
1.0 0.0 0.0 from 1 to 32
1.0 1.0 0.0 from 1 to 32
1.0 1.0 1.0 from 1 to 32
%endblock WaveFuncKPoints
LongOutput .true.
LatticeConstant 5.430 Ang
AtomicCoordinatesFormat ScaledCartesian
%block LatticeVectors
  0.00   1.00 0.00
  1.00   0.00 0.00
  0.00   0.00  1.00 
%endblock LatticeVectors
%block kgrid_Monkhorst_Pack
2 0 0 0.
0 2 0 0.
0 0 2 0.
%endblock kgrid_Monkhorst_Pack

%block AtomicCoordinatesAndAtomicSpecies
0. 0. 0. 1
0.5 0.5 0.  1
0.  0.5 .5 1
.5  0.  .5  1
.25 .25 .25 1
0.75 0.75 0.25 1
0.25 .75 .75 1
.75 .25 .75 1
%endblock AtomicCoordinatesAndAtomicSpecies
